NAME : block_30.415978.tour
COMMENT : Length = 415978
COMMENT : Found by LKH-3 [Keld Helsgaun] Mon Feb  2 23:13:35 2026
TYPE : TOUR
DIMENSION : 115
TOUR_SECTION
1
48
39
30
22
16
15
8
9
3
4
10
17
23
31
40
49
58
57
66
67
75
83
90
96
102
108
103
97
91
84
76
68
59
50
41
32
24
18
11
5
6
12
19
25
33
42
51
60
69
77
85
92
98
104
109
112
113
114
111
110
105
99
93
86
78
70
61
52
43
34
26
20
13
7
14
21
27
35
44
53
62
71
79
87
94
100
106
107
101
95
88
80
72
63
54
45
36
28
29
37
38
47
46
55
64
73
81
89
82
74
65
56
2
115
-1
EOF
